solution status: optimal solution found
objective value:                                    9
$_26__2_y                                          12 	(obj:0)
$_26__2_z                                          16 	(obj:0)
$_90_y                                             19 	(obj:0)
$_90_z                                             16 	(obj:0)
$_28__2_y                                          15 	(obj:0)
$_28__2_z                                          23 	(obj:0)
$_185_y                                            19 	(obj:0)
$_185_z                                            18 	(obj:0)
$_27__2_y                                          13 	(obj:0)
$_27__2_z                                          25 	(obj:0)
$_297_y                                            12 	(obj:0)
$_297_z                                            15 	(obj:0)
$_89_y                                             20 	(obj:0)
$_89_z                                             16 	(obj:0)
$_49_y                                             15 	(obj:0)
$_49_z                                             17 	(obj:0)
$_25__2_y                                          15 	(obj:0)
$_25__2_z                                          16 	(obj:0)
$_88_y                                             21 	(obj:0)
$_88_z                                             16 	(obj:0)
$_84_y                                             13 	(obj:0)
$_84_z                                             15 	(obj:0)
$_17__2_y                                          14 	(obj:0)
$_17__2_z                                          22 	(obj:0)
$_249_y                                            20 	(obj:0)
$_249_z                                            17 	(obj:0)
$_201_y                                            21 	(obj:0)
$_201_z                                            20 	(obj:0)
$_58_y                                             12 	(obj:0)
$_58_z                                             23 	(obj:0)
$_23__2_y                                          22 	(obj:0)
$_23__2_z                                          16 	(obj:0)
$_92_y                                             12 	(obj:0)
$_92_z                                             14 	(obj:0)
$_73_y                                             11 	(obj:0)
$_73_z                                             16 	(obj:0)
$_86_y                                             19 	(obj:0)
$_86_z                                             17 	(obj:0)
$_70_y                                             16 	(obj:0)
$_70_z                                             20 	(obj:0)
$_24__2_y                                          25 	(obj:0)
$_24__2_z                                          11 	(obj:0)
$_233_y                                            21 	(obj:0)
$_233_z                                            17 	(obj:0)
$_95_y                                             13 	(obj:0)
$_95_z                                             14 	(obj:0)
$_320_y                                            17 	(obj:0)
$_320_z                                            19 	(obj:0)
$_85_y                                             17 	(obj:0)
$_85_z                                             16 	(obj:0)
$_168_y                                            16 	(obj:0)
$_168_z                                            16 	(obj:0)
$_71_y                                             16 	(obj:0)
$_71_z                                             19 	(obj:0)
$_281_y                                            14 	(obj:0)
$_281_z                                            16 	(obj:0)
$_21__2_y                                          17 	(obj:0)
$_21__2_z                                          14 	(obj:0)
$_265_y                                            18 	(obj:0)
$_265_z                                            16 	(obj:0)
$_48_y                                             18 	(obj:0)
$_48_z                                             20 	(obj:0)
$_80_y                                             15 	(obj:0)
$_80_z                                             20 	(obj:0)
$_18_y                                             12 	(obj:0)
$_18_z                                             19 	(obj:0)
$_93_y                                             11 	(obj:0)
$_93_z                                             15 	(obj:0)
$_20__2_y                                          13 	(obj:0)
$_20__2_z                                          13 	(obj:0)
$_113_y                                            11 	(obj:0)
$_113_z                                            17 	(obj:0)
$_87_y                                             21 	(obj:0)
$_87_z                                             22 	(obj:0)
$_51_y                                             14 	(obj:0)
$_51_z                                             13 	(obj:0)
$_19__2_y                                          14 	(obj:0)
$_19__2_z                                          10 	(obj:0)
$_217_y                                            21 	(obj:0)
$_217_z                                            18 	(obj:0)
$_321_y                                            17 	(obj:0)
$_321_z                                            20 	(obj:0)
$_22__2_y                                          18 	(obj:0)
$_22__2_z                                          17 	(obj:0)
$_91_y                                             14 	(obj:0)
$_91_z                                             17 	(obj:0)
x93                                                 1 	(obj:1)
x120                                                1 	(obj:1)
x147                                                1 	(obj:1)
x148                                                1 	(obj:1)
x156                                                1 	(obj:1)
x161                                                2 	(obj:1)
x182                                                2 	(obj:1)
